N = 77;
M = 272;
Edge_Start = [1, 2, 2, 3, 4, 4, 5, 5, 5, 6, 6, 6, 7, 8, 9, 10, 11, 11, 12, 12, 13, 13, 13, 14, 14, 15, 15, 16, 16, 16, 17, 17, 17, 18, 18, 19, 19, 20, 20, 21, 21, 22, 23, 24, 24, 25, 25, 25, 26, 26, 27, 27, 28, 28, 29, 29, 29, 30, 30, 30, 31, 31, 32, 33, 33, 34, 34, 35, 35, 36, 36, 37, 38, 38, 39, 39, 40, 40, 41, 41, 42, 42, 43, 44, 45, 45, 46, 46, 47, 47, 48, 48, 49, 50, 50, 50, 51, 51, 52, 53, 53, 54, 55, 56, 56, 57, 58, 59, 59, 60, 60, 61, 62, 62, 63, 63, 64, 64, 65, 66, 67, 67, 68, 69, 70, 71, 71, 72, 72, 73, 74, 74, 75, 75, 76, 77, 42, 4, 5, 25, 2, 65, 6, 45, 48, 4, 5, 44, 68, 20, 75, 57, 12, 33, 11, 59, 16, 17, 63, 28, 50, 16, 38, 8, 13, 18, 13, 30, 59, 15, 47, 27, 69, 1, 42, 30, 51, 52, 18, 9, 26, 3, 58, 72, 9, 43, 6, 48, 29, 70, 28, 30, 50, 17, 21, 29, 70, 74, 60, 24, 68, 23, 56, 22, 76, 7, 71, 39, 57, 73, 37, 40, 39, 46, 34, 42, 12, 33, 54, 6, 5, 77, 10, 15, 39, 46, 49, 55, 19, 14, 29, 51, 21, 50, 25, 27, 66, 61, 77, 23, 47, 73, 25, 12, 17, 36, 54, 32, 67, 73, 1, 8, 2, 65, 64, 27, 13, 16, 41, 3, 62, 7, 68, 53, 66, 31, 35, 76, 43, 54, 22, 45];
Edge_End = [42, 4, 5, 25, 2, 65, 6, 45, 48, 4, 5, 44, 68, 20, 75, 57, 12, 33, 11, 59, 16, 17, 63, 28, 50, 16, 38, 8, 13, 18, 13, 30, 59, 15, 47, 27, 69, 1, 42, 30, 51, 52, 18, 9, 26, 3, 58, 72, 9, 43, 6, 48, 29, 70, 28, 30, 50, 17, 21, 29, 70, 74, 60, 24, 68, 23, 56, 22, 76, 7, 71, 39, 57, 73, 37, 40, 39, 46, 34, 42, 12, 33, 54, 6, 5, 77, 10, 15, 39, 46, 49, 55, 19, 14, 29, 51, 21, 50, 25, 27, 66, 61, 77, 23, 47, 73, 25, 12, 17, 36, 54, 32, 67, 73, 1, 8, 2, 65, 64, 27, 13, 16, 41, 3, 62, 7, 68, 53, 66, 31, 35, 76, 43, 54, 22, 45, 1, 2, 2, 3, 4, 4, 5, 5, 5, 6, 6, 6, 7, 8, 9, 10, 11, 11, 12, 12, 13, 13, 13, 14, 14, 15, 15, 16, 16, 16, 17, 17, 17, 18, 18, 19, 19, 20, 20, 21, 21, 22, 23, 24, 24, 25, 25, 25, 26, 26, 27, 27, 28, 28, 29, 29, 29, 30, 30, 30, 31, 31, 32, 33, 33, 34, 34, 35, 35, 36, 36, 37, 38, 38, 39, 39, 40, 40, 41, 41, 42, 42, 43, 44, 45, 45, 46, 46, 47, 47, 48, 48, 49, 50, 50, 50, 51, 51, 52, 53, 53, 54, 55, 56, 56, 57, 58, 59, 59, 60, 60, 61, 62, 62, 63, 63, 64, 64, 65, 66, 67, 67, 68, 69, 70, 71, 71, 72, 72, 73, 74, 74, 75, 75, 76, 77];
L = [1, 1, 1, 1, 1, 1, 1, 1, 1, 1, 1, 1, 1, 1, 1, 1, 1, 1, 1, 1, 1, 1, 1, 1, 1, 1, 1, 1, 1, 1, 1, 1, 1, 1, 1, 1, 1, 1, 1, 1, 1, 1, 1, 1, 1, 1, 1, 1, 1, 1, 1, 1, 1, 1, 1, 1, 1, 1, 1, 1, 1, 1, 1, 1, 1, 1, 1, 1, 1, 1, 1, 1, 1, 1, 1, 1, 1, 1, 1, 1, 1, 1, 1, 1, 1, 1, 1, 1, 1, 1, 1, 1, 1, 1, 1, 1, 1, 1, 1, 1, 1, 1, 1, 1, 1, 1, 1, 1, 1, 1, 1, 1, 1, 1, 1, 1, 1, 1, 1, 1, 1, 1, 1, 1, 1, 1, 1, 1, 1, 1, 1, 1, 1, 1, 1, 1, 1, 1, 1, 1, 1, 1, 1, 1, 1, 1, 1, 1, 1, 1, 1, 1, 1, 1, 1, 1, 1, 1, 1, 1, 1, 1, 1, 1, 1, 1, 1, 1, 1, 1, 1, 1, 1, 1, 1, 1, 1, 1, 1, 1, 1, 1, 1, 1, 1, 1, 1, 1, 1, 1, 1, 1, 1, 1, 1, 1, 1, 1, 1, 1, 1, 1, 1, 1, 1, 1, 1, 1, 1, 1, 1, 1, 1, 1, 1, 1, 1, 1, 1, 1, 1, 1, 1, 1, 1, 1, 1, 1, 1, 1, 1, 1, 1, 1, 1, 1, 1, 1, 1, 1, 1, 1, 1, 1, 1, 1, 1, 1, 1, 1, 1, 1, 1, 1, 1, 1, 1, 1, 1, 1, 1, 1, 1, 1, 1, 1, 1, 1, 1, 1, 1, 1];
T = [1, 1, 1, 1, 1, 1, 1, 1, 1, 1, 1, 1, 1, 1, 1, 1, 1, 1, 1, 1, 1, 1, 1, 1, 1, 1, 1, 1, 1, 1, 1, 1, 1, 1, 1, 1, 1, 1, 1, 1, 1, 1, 1, 1, 1, 1, 1, 1, 1, 1, 1, 1, 1, 1, 1, 1, 1, 1, 1, 1, 1, 1, 1, 1, 1, 1, 1, 1, 1, 1, 1, 1, 1, 1, 1, 1, 1, 1, 1, 1, 1, 1, 1, 1, 1, 1, 1, 1, 1, 1, 1, 1, 1, 1, 1, 1, 1, 1, 1, 1, 1, 1, 1, 1, 1, 1, 1, 1, 1, 1, 1, 1, 1, 1, 1, 1, 1, 1, 1, 1, 1, 1, 1, 1, 1, 1, 1, 1, 1, 1, 1, 1, 1, 1, 1, 1, 1, 1, 1, 1, 1, 1, 1, 1, 1, 1, 1, 1, 1, 1, 1, 1, 1, 1, 1, 1, 1, 1, 1, 1, 1, 1, 1, 1, 1, 1, 1, 1, 1, 1, 1, 1, 1, 1, 1, 1, 1, 1, 1, 1, 1, 1, 1, 1, 1, 1, 1, 1, 1, 1, 1, 1, 1, 1, 1, 1, 1, 1, 1, 1, 1, 1, 1, 1, 1, 1, 1, 1, 1, 1, 1, 1, 1, 1, 1, 1, 1, 1, 1, 1, 1, 1, 1, 1, 1, 1, 1, 1, 1, 1, 1, 1, 1, 1, 1, 1, 1, 1, 1, 1, 1, 1, 1, 1, 1, 1, 1, 1, 1, 1, 1, 1, 1, 1, 1, 1, 1, 1, 1, 1, 1, 1, 1, 1, 1, 1, 1, 1, 1, 1, 1, 1];
Lower_Bound = [8, 19, 14, 18, 18, 17, 12, 7, 5, 6, 4, 3, 6, 9, 5, 6, 5, 4, 19, 8, 7, 11, 3, 4, 13, 5, 16, 8, 7, 6, 8, 9, 3, 2, 10, 11, 6, 6, 5, 6, 1, 2, 6, 18, 19, 5, 4, 17, 18, 8, 8, 12, 15, 7, 18, 3, 7, 14, 4, 10, 8, 10, 7, 20, 19, 15, 11, 0, 20, 9, 12, 14, 7, 9, 6, 10, 19];
Upper_Bound = [8, 19, 14, 18, 18, 17, 12, 7, 5, 6, 4, 3, 6, 9, 5, 6, 5, 4, 19, 8, 7, 11, 3, 4, 13, 5, 16, 8, 7, 6, 8, 9, 3, 2, 10, 11, 6, 6, 5, 6, 1, 2, 6, 18, 19, 5, 4, 17, 18, 8, 8, 12, 15, 7, 18, 3, 7, 14, 4, 10, 8, 10, 7, 20, 19, 15, 11, 0, 20, 9, 12, 14, 7, 9, 6, 10, 19];
Start = 68;
End = 69;
Time = 20;
